
List of user-set options:

                                    Name   Value                used
                linear_scaling_on_demand = no                    yes
                           linear_solver = ma86                  yes
                   linear_system_scaling = mc19                  yes
                                max_iter = 7000                  yes
                             output_file = ipopt_output_tmp.output  yes
                      print_user_options = yes                   yes

******************************************************************************
This program contains Ipopt, a library for large-scale nonlinear optimization.
 Ipopt is released as open source code under the Eclipse Public License (EPL).
         For more information visit http://projects.coin-or.org/Ipopt
******************************************************************************

This is Ipopt version 3.12.8, running with linear solver ma86.

Number of nonzeros in equality constraint Jacobian...:     4012
Number of nonzeros in inequality constraint Jacobian.:        5
Number of nonzeros in Lagrangian Hessian.............:     4395

Total number of variables............................:     1186
                     variables with only lower bounds:      383
                variables with lower and upper bounds:      633
                     variables with only upper bounds:        0
Total number of equality constraints.................:     1182
Total number of inequality constraints...............:        1
        inequality constraints with only lower bounds:        0
   inequality constraints with lower and upper bounds:        0
        inequality constraints with only upper bounds:        1

iter    objective    inf_pr   inf_du lg(mu)  ||d||  lg(rg) alpha_du alpha_pr  ls
   0 -3.7414000e+02 1.84e+04 1.00e+00  -1.0 0.00e+00    -  0.00e+00 0.00e+00   0
   1 -3.7414666e+02 1.84e+04 3.61e+00  -1.0 7.88e+04    -  1.47e-04 5.88e-05h  1
   2r-3.7414666e+02 1.84e+04 9.99e+02   4.3 0.00e+00    -  0.00e+00 2.71e-07R  3
   3r-3.7414627e+02 1.84e+04 9.99e+02   4.3 4.54e+05    -  1.81e-05 1.02e-07f  1
   4r-3.8548253e+02 1.71e+04 9.96e+02   2.2 4.45e+05    -  2.51e-04 2.78e-03f  1
   5r-3.9194117e+02 1.62e+04 9.96e+02   2.2 2.81e+06    -  5.03e-04 3.08e-04f  1
   6 -3.9194675e+02 1.62e+04 6.54e+00  -1.0 8.48e+04    -  1.43e-04 6.24e-05h  1
   7 -3.9195405e+02 1.62e+04 2.79e+01  -1.0 7.19e+03    -  2.05e-04 5.90e-05h  1
   8 -3.9196411e+02 1.62e+04 1.46e+02  -1.0 7.17e+03    -  3.17e-04 8.13e-05h  1
   9r-3.9196411e+02 1.62e+04 9.99e+02   4.2 0.00e+00    -  0.00e+00 4.21e-07R  2
iter    objective    inf_pr   inf_du lg(mu)  ||d||  lg(rg) alpha_du alpha_pr  ls
  10r-3.9196418e+02 1.62e+04 8.10e+03   4.2 2.96e+05    -  1.90e-03 1.56e-07f  1
  11r-4.4167272e+02 9.90e+03 7.31e+03   2.8 4.96e+05    -  4.56e-03 1.14e-02f  1
  12 -4.4167340e+02 9.90e+03 4.93e+01  -1.0 7.44e+04    -  1.52e-04 1.41e-05h  1
  13 -4.4167798e+02 9.90e+03 4.63e+02  -1.0 4.41e+03    -  9.25e-04 4.64e-05h  1
  14 -4.4168681e+02 9.89e+03 4.49e+03  -1.0 4.29e+03    -  1.27e-03 8.97e-05h  1
  15r-4.4168681e+02 9.89e+03 1.00e+03   4.0 0.00e+00    -  0.00e+00 4.61e-07R  2
  16r-4.4168718e+02 9.89e+03 3.97e+03   4.0 4.22e+05    -  1.73e-03 2.50e-07f  1
  17r-4.5994363e+02 7.19e+03 4.38e+03   2.6 6.96e+05    -  1.07e-02 3.73e-03f  1
  18 -4.5994503e+02 7.19e+03 5.36e+01  -1.0 4.26e+03    -  8.99e-04 1.63e-05h  1
  19r-4.5994503e+02 7.19e+03 9.99e+02   3.9 0.00e+00    -  0.00e+00 1.01e-07R  2
iter    objective    inf_pr   inf_du lg(mu)  ||d||  lg(rg) alpha_du alpha_pr  ls
  20r-4.5994515e+02 7.19e+03 9.99e+02   3.9 5.11e+05    -  2.24e-04 9.22e-08f  2
  21r-4.7292727e+02 4.93e+03 9.96e+02   2.5 6.84e+05    -  3.39e-03 3.22e-03f  1
  22 -4.7294867e+02 4.93e+03 7.25e+01  -1.0 5.22e+03    -  6.56e-04 2.58e-04h  1
  23r-4.7294867e+02 4.93e+03 9.99e+02   3.7 0.00e+00    -  0.00e+00 4.13e-07R  4
  24r-4.7294903e+02 4.93e+03 5.16e+03   3.7 4.85e+05    -  4.82e-03 3.07e-07f  2
  25r-4.7305446e+02 4.19e+03 6.79e+03   2.3 2.73e+05    -  2.98e-02 2.72e-03f  1
  26 -4.7305555e+02 4.19e+03 2.02e+03  -1.0 2.16e+04    -  2.75e-04 2.22e-05h  1
  27r-4.7305555e+02 4.19e+03 1.00e+03   3.6 0.00e+00    -  0.00e+00 1.76e-07R  2
  28r-4.7302552e+02 4.18e+03 1.24e+03   3.6 2.53e+05    -  1.34e-03 2.89e-05f  1
  29r-4.7302162e+02 3.57e+03 2.45e+03   2.2 2.91e+05    -  1.91e-02 2.10e-03f  1
iter    objective    inf_pr   inf_du lg(mu)  ||d||  lg(rg) alpha_du alpha_pr  ls
  30r-4.7302162e+02 3.57e+03 9.99e+02   3.6 0.00e+00    -  0.00e+00 4.63e-07R  3
  31r-4.7302061e+02 3.57e+03 1.05e+04   3.6 3.14e+05    -  6.61e-03 2.39e-07f  1
  32r-4.7300710e+02 5.13e+02 1.04e+04   2.2 3.01e+05    -  2.23e-02 1.18e-02f  1
  33 -4.7300820e+02 5.13e+02 2.79e+00  -1.0 1.04e+04    -  8.05e-05 1.67e-05h  1
  34r-4.7300820e+02 5.13e+02 9.99e+02   2.7 0.00e+00    -  0.00e+00 3.25e-07R  5
  35r-4.7300785e+02 5.13e+02 9.99e+02   2.7 1.48e+04    -  2.83e-03 1.19e-06f  1
  36r-4.7263117e+02 5.13e+02 9.94e+02   2.7 1.05e+04    -  5.73e-03 4.81e-03f  1
  37r-4.7197526e+02 5.12e+02 4.25e+03   2.7 3.91e+03    -  1.81e-02 1.38e-02f  1
  38r-4.7121114e+02 5.11e+02 4.94e+04   2.7 6.22e+02    -  1.07e-01 2.71e-02f  1
  39r-4.7065564e+02 5.08e+02 4.39e+04   2.0 2.12e+02    -  6.86e-02 7.84e-02f  1
iter    objective    inf_pr   inf_du lg(mu)  ||d||  lg(rg) alpha_du alpha_pr  ls
  40r-4.7051399e+02 5.07e+02 4.43e+04   2.0 3.97e+02   0.0 1.49e-02 1.66e-02f  1
  41r-4.7002969e+02 5.02e+02 3.41e+04   2.0 2.92e+01   1.3 3.25e-01 2.43e-01f  1
  42r-4.6961632e+02 4.93e+02 3.22e+04   2.0 8.80e+01    -  1.22e-01 1.03e-01f  1
  43r-4.6926954e+02 4.81e+02 8.24e+04   2.0 7.89e+01    -  4.56e-01 1.50e-01f  1
  44r-4.6825858e+02 4.45e+02 1.30e+05   2.0 6.71e+01    -  9.98e-01 5.48e-01f  1
  45 -4.6809731e+02 4.23e+02 1.28e+03  -1.0 1.12e+03    -  3.13e-03 4.92e-02h  2
  46 -4.6799380e+02 4.20e+02 1.23e+03  -1.0 1.12e+03    -  9.69e-03 7.37e-03h  3
  47 -4.6775441e+02 4.15e+02 4.47e+02  -1.0 1.08e+03    -  6.98e-02 1.21e-02h  2
  48 -4.6721258e+02 4.07e+02 4.27e+01  -1.0 1.03e+03    -  7.62e-02 1.77e-02h  3
  49 -4.6627465e+02 3.97e+02 3.50e+02  -1.0 9.51e+02    -  1.45e-01 2.49e-02h  4
iter    objective    inf_pr   inf_du lg(mu)  ||d||  lg(rg) alpha_du alpha_pr  ls
  50 -4.6486264e+02 3.86e+02 1.38e+02  -1.0 8.00e+02    -  1.05e-01 2.86e-02h  4
  51 -4.5255181e+02 2.42e+02 3.24e+04  -1.0 7.21e+02    -  2.77e-01 3.72e-01H  1
  52 -4.5258666e+02 2.41e+02 3.25e+04  -1.0 2.42e+02    -  2.38e-01 5.81e-03h  1
  53 -4.5264531e+02 2.40e+02 3.35e+04  -1.0 8.47e+03    -  5.81e-02 2.40e-03h  1
  54 -4.5243467e+02 2.40e+02 3.36e+04  -1.0 5.62e+03    -  2.98e-02 3.95e-04h  1
  55 -4.3049810e+02 2.36e+02 4.32e+04  -1.0 6.87e+03    -  1.80e-02 1.53e-02h  1
  56 -4.2843730e+02 2.35e+02 4.24e+04  -1.0 3.08e+02    -  4.29e-01 6.70e-03h  1
  57 -4.2841496e+02 2.35e+02 3.72e+05  -1.0 3.20e+02    -  1.68e-01 7.00e-05h  1
  58 -4.2841459e+02 2.35e+02 3.72e+05  -1.0 2.53e+03    -  2.21e-06 2.21e-06s  4
  59 -4.2841458e+02 2.35e+02 3.72e+05  -1.0 3.21e+03    -  7.99e-08 7.99e-08s  4
iter    objective    inf_pr   inf_du lg(mu)  ||d||  lg(rg) alpha_du alpha_pr  ls
  60r-4.2841458e+02 2.35e+02 1.00e+03   2.4 0.00e+00    -  0.00e+00 0.00e+00R  1
  61r-4.2837600e+02 2.04e+02 5.43e+04   2.4 1.69e+04    -  7.52e-03 1.82e-03f  1
  62 -4.2809003e+02 2.04e+02 6.85e+01  -1.0 2.04e+02    -  6.80e-03 1.69e-03h  1
  63 -4.2793677e+02 2.04e+02 2.91e+03  -1.0 3.48e+02    -  1.06e-01 4.40e-04h  1
  64 -4.2793318e+02 2.04e+02 1.41e+07  -1.0 1.10e+03    -  1.31e-01 1.31e-05h  1
  65r-4.2793318e+02 2.04e+02 1.00e+03   2.3 0.00e+00    -  0.00e+00 3.05e-07R  6
  66r-4.2792723e+02 1.95e+02 4.68e+03   2.3 1.96e+04    -  1.94e-03 4.65e-04f  1
  67r-4.2788028e+02 1.39e+02 7.92e+03   2.3 1.92e+04    -  4.44e-03 2.88e-03f  1
  68 -4.2770954e+02 1.39e+02 2.48e+03  -1.0 3.84e+02    -  9.75e-02 4.45e-04h  1
  69 -4.2766695e+02 1.39e+02 3.27e+04  -1.0 5.41e+02    -  1.12e-02 7.90e-05h  1
iter    objective    inf_pr   inf_du lg(mu)  ||d||  lg(rg) alpha_du alpha_pr  ls
  70 -4.2765179e+02 1.39e+02 5.02e+07  -1.0 7.98e+02    -  7.60e-02 2.96e-05h  1
  71r-4.2765179e+02 1.39e+02 1.00e+03   2.1 0.00e+00    -  0.00e+00 4.42e-07R  3
  72r-4.2763552e+02 1.23e+02 3.47e+03   2.1 2.58e+04    -  2.11e-03 6.18e-04f  1
  73 -4.2760895e+02 1.23e+02 1.52e+03  -1.0 5.11e+02    -  7.55e-02 5.21e-05h  1
  74r-4.2760895e+02 1.23e+02 1.00e+03   2.1 0.00e+00    -  0.00e+00 4.05e-07R  4
  75r-4.2757559e+02 1.14e+02 3.16e+03   2.1 2.74e+04    -  1.12e-03 3.24e-04f  1
  76r-4.2752557e+02 6.85e+01 3.21e+03   2.1 2.54e+04    -  3.59e-03 1.81e-03f  1
  77 -4.2732639e+02 6.83e+01 8.44e+05  -1.0 1.00e+02    -  3.94e-04 2.38e-03h  1
  78 -4.0078872e+02 4.38e+01 9.09e+08  -1.0 7.47e+01    -  2.80e-03 3.59e-01h  1
  79 -3.9645244e+02 4.19e+01 8.71e+08  -1.0 1.15e+02    -  1.75e-01 4.42e-02h  1
iter    objective    inf_pr   inf_du lg(mu)  ||d||  lg(rg) alpha_du alpha_pr  ls
  80 -3.9601311e+02 4.15e+01 8.62e+08  -1.0 1.04e+02    -  5.60e-03 9.66e-03h  1
  81 -4.0219978e+02 3.11e+01 6.31e+08  -1.0 1.62e+02    -  1.51e-02 2.50e-01f  1
  82 -4.0106107e+02 2.91e+01 5.89e+08  -1.0 5.33e+02    -  3.79e-02 6.61e-02h  1
  83 -3.9084806e+02 1.38e+01 1.16e+08  -1.0 5.04e+02    -  9.41e-02 7.33e-01h  1
  84 -3.9084197e+02 1.38e+01 1.16e+08  -1.0 1.79e+01   2.0 3.47e-03 1.35e-03h  1
  85 -3.9278665e+02 8.71e+00 7.22e+07  -1.0 1.13e+02    -  1.11e-03 3.78e-01h  1
  86 -3.9278098e+02 8.70e+00 7.21e+07  -1.0 7.42e+01   1.5 4.45e-01 8.91e-04h  1
  87 -3.9641917e+02 5.66e-01 4.11e+06  -1.0 1.26e+02    -  4.11e-02 9.74e-01h  1
  88 -4.2487610e+02 1.20e+00 1.51e+06  -1.0 7.17e+01    -  4.44e-01 6.29e-01f  1
  89 -4.7052224e+02 5.31e+00 7.01e+05  -1.0 9.90e+01    -  3.90e-01 4.91e-01f  1
iter    objective    inf_pr   inf_du lg(mu)  ||d||  lg(rg) alpha_du alpha_pr  ls
  90 -4.7099815e+02 5.25e+00 1.33e+07  -1.0 2.64e+02    -  4.63e-01 9.23e-03f  1
  91 -4.7297344e+02 1.97e+00 7.18e+06  -1.0 4.39e+02    -  5.17e-01 5.83e-01h  1
  92 -4.7290561e+02 1.29e+00 2.52e+06  -1.0 1.35e+01    -  9.78e-01 8.14e-01h  1
  93 -4.7293680e+02 3.17e-01 1.37e+06  -1.0 9.44e+00    -  6.52e-01 7.19e-01h  1
  94 -4.7289457e+02 2.62e-01 1.15e+06  -1.0 5.08e+01    -  4.60e-01 1.49e-01f  2
  95 -4.7245122e+02 1.41e-01 1.05e+06  -1.0 1.33e+01    -  4.37e-01 1.00e+00h  1
  96 -4.7219683e+02 1.39e-01 1.41e+05  -1.0 1.21e+01    -  1.00e+00 1.00e+00h  1
  97 -4.7216051e+02 1.18e-03 4.99e+02  -1.0 9.59e-01    -  1.00e+00 1.00e+00h  1
  98 -4.7279883e+02 1.52e-01 1.05e+06  -2.5 1.35e+01    -  8.51e-01 9.60e-01f  1
  99 -4.7313666e+02 2.82e-01 5.83e+05  -2.5 2.32e+01    -  1.00e+00 6.63e-01h  1
iter    objective    inf_pr   inf_du lg(mu)  ||d||  lg(rg) alpha_du alpha_pr  ls
 100 -4.7312908e+02 1.24e-02 1.04e+04  -2.5 3.29e+00    -  1.00e+00 1.00e+00h  1
 101 -4.7313603e+02 2.11e-04 3.84e+01  -2.5 4.57e-01    -  1.00e+00 1.00e+00h  1
 102 -4.7313538e+02 4.07e-05 1.23e+00  -2.5 2.01e-01    -  1.00e+00 1.00e+00h  1
 103 -4.7314842e+02 1.07e-04 2.62e+04  -3.8 3.54e-01    -  1.00e+00 9.05e-01f  1
 104 -4.7314925e+02 2.46e-07 3.54e+00  -3.8 4.19e-02    -  1.00e+00 1.00e+00f  1
 105 -4.7314925e+02 1.35e-10 4.31e-06  -3.8 1.21e-04    -  1.00e+00 1.00e+00h  1
 106 -4.7315000e+02 1.43e-07 1.95e+00  -5.7 1.80e-02    -  1.00e+00 1.00e+00f  1
 107 -4.7315000e+02 4.48e-11 2.01e-06  -5.7 1.05e-04    -  1.00e+00 1.00e+00h  1
 108 -4.7315000e+02 1.33e-10 7.56e-01  -8.6 2.24e-04    -  1.00e+00 9.96e-01h  1
 109 -4.7315000e+02 1.35e-10 3.25e-07  -8.6 9.28e-07    -  1.00e+00 1.00e+00f  1
iter    objective    inf_pr   inf_du lg(mu)  ||d||  lg(rg) alpha_du alpha_pr  ls
 110 -4.7315000e+02 3.64e-12 1.18e-07  -8.6 5.12e-07    -  1.00e+00 1.00e+00h  1
 111 -4.7315000e+02 3.64e-12 2.06e-08  -8.6 7.28e-07    -  1.00e+00 1.00e+00h  1
 112 -4.7315000e+02 1.35e-10 2.59e-09  -9.0 1.94e-07    -  1.00e+00 1.00e+00h  1

Number of Iterations....: 112

                                   (scaled)                 (unscaled)
Objective...............:  -4.7315000473980871e+02   -4.7315000473980871e+02
Dual infeasibility......:   2.5902233849675413e-09    2.5902233849675413e-09
Constraint violation....:   1.3452435292018311e-10    1.3452435292018311e-10
Complementarity.........:   9.8386617322907378e-10    9.8386617322907378e-10
Overall NLP error.......:   2.5902233849675413e-09    2.5902233849675413e-09


Number of objective function evaluations             = 185
Number of objective gradient evaluations             = 94
Number of equality constraint evaluations            = 185
Number of inequality constraint evaluations          = 185
Number of equality constraint Jacobian evaluations   = 125
Number of inequality constraint Jacobian evaluations = 125
Number of Lagrangian Hessian evaluations             = 112
Total CPU secs in IPOPT (w/o function evaluations)   =      5.881
Total CPU secs in NLP function evaluations           =      0.274

EXIT: Optimal Solution Found.
